# Cluster_Size Frequency
1 221
2 27
3 17
4 7
5 8
6 4
8 2
9 3
42 1
12 2
16 1
52 1
597 1
41 1
28 2
10 2
21 1
