# Cluster_Size Frequency
672 1
1 211
2 19
3 16
4 9
6 1
38 1
7 5
72 1
9 1
10 2
11 1
44 1
18 2
14 2
50 1
23 1
59 1
5 2
