# Cluster_Size Frequency
1 188
2 19
3 7
4 7
5 4
6 2
7 2
8 1
9 2
13 2
15 1
214 1
73 1
29 1
