# Cluster_Size Frequency
416 1
161 1
2 29
3 12
4 7
37 1
6 1
1 199
12 2
10 1
75 1
44 1
13 1
47 1
16 1
17 2
9 2
28 1
5 2
