# Cluster_Size Frequency
257 1
2 3
3 2
228 1
1 19
