# Cluster_Size Frequency
1 19
2 5
3 2
5 1
582 1
8 1
