# Cluster_Size Frequency
16 1
1 14
2 4
3 5
4 1
5 2
38 1
105 1
62 1
