# Cluster_Size Frequency
1 177
2 19
3 7
4 1
5 3
6 1
7 3
8 2
9 2
42 1
11 2
24 1
28 1
29 1
