# Cluster_Size Frequency
35 2
2 34
3 14
4 3
5 5
6 7
7 1
9 3
1 181
11 1
17 1
19 2
53 1
