# Cluster_Size Frequency
1 178
2 28
3 7
4 1
5 4
38 1
8 2
9 1
106 1
75 1
13 2
14 1
15 1
17 1
18 1
20 2
22 1
24 1
31 1
