# Cluster_Size Frequency
1 211
2 24
3 15
4 9
5 7
6 4
39 1
8 1
9 3
10 2
12 2
16 1
40 1
52 1
21 1
26 1
28 1
