# Cluster_Size Frequency
1 133
2 14
3 8
4 3
5 2
6 2
7 1
11 1
