# Cluster_Size Frequency
1 190
2 25
3 11
4 4
37 1
6 2
17 1
8 2
10 2
11 2
15 1
16 1
49 1
18 1
7 1
5 2
63 1
