# Cluster_Size Frequency
1 146
2 21
3 8
164 1
5 1
6 3
7 1
8 1
9 1
10 1
12 1
20 1
4 6
