# Cluster_Size Frequency
1 161
2 28
3 13
84 1
22 1
6 3
4 3
10 1
14 2
5 4
