# Cluster_Size Frequency
1 108
2 19
3 8
4 5
5 3
6 4
7 1
8 1
9 2
