# Cluster_Size Frequency
3 5
1 26
82 1
27 1
4 2
5 2
6 1
7 1
11 1
2 9
