# Cluster_Size Frequency
1 20
2 12
3 3
4 1
5 2
8 1
185 1
30 1
