# Cluster_Size Frequency
1 27
18 1
3 6
20 1
5 3
9 1
36 1
10 1
11 1
2 9
4 3
