# Cluster_Size Frequency
192 1
17 1
2 6
3 3
4 3
5 1
7 2
1 22
12 1
