# Cluster_Size Frequency
1 24
2 10
3 4
4 1
250 1
11 1
