# Cluster_Size Frequency
1 23
178 1
3 1
4 2
5 3
26 1
11 1
2 8
