# Cluster_Size Frequency
1 112
2 16
3 5
4 4
5 2
6 1
7 1
8 1
9 2
10 1
11 2
14 1
15 1
21 1
