# Cluster_Size Frequency
1 121
2 19
3 10
4 3
5 5
6 1
7 4
8 3
9 2
10 2
17 1
19 1
30 1
