# Cluster_Size Frequency
1 117
2 16
3 9
4 4
5 1
7 2
8 1
9 1
10 2
