# Cluster_Size Frequency
3 3
1 107
2 18
35 1
4 2
5 3
7 1
8 1
28 1
10 2
12 1
