# Cluster_Size Frequency
1 117
2 15
3 6
20 1
5 1
6 1
7 1
8 1
9 1
10 1
4 4
