# Cluster_Size Frequency
33 1
2 23
3 3
4 1
6 1
7 1
1 106
11 1
12 1
13 1
14 1
21 1
