# Cluster_Size Frequency
33 1
2 23
3 8
4 2
5 4
6 3
39 1
9 1
10 2
11 1
16 1
17 1
18 1
19 1
1 140
361 1
7 2
28 1
