# Cluster_Size Frequency
3 6
1 107
2 18
27 1
4 6
5 7
6 3
7 2
8 1
9 2
11 1
