# Cluster_Size Frequency
1 135
2 24
3 8
4 5
5 8
6 3
7 2
8 3
9 1
10 2
270 1
15 1
17 1
23 1
26 1
29 1
