# Cluster_Size Frequency
1 26
2 8
3 1
4 4
309 1
6 1
9 1
5 1
