# Cluster_Size Frequency
1 31
2 9
3 7
4 4
37 1
7 1
8 1
9 1
13 1
14 2
15 1
