# Cluster_Size Frequency
1 44
2 6
3 2
5 2
186 1
12 1
10 1
