# Cluster_Size Frequency
1 21
2 5
3 5
20 1
5 1
6 1
7 2
4 1
10 1
119 1
