# Cluster_Size Frequency
1 103
2 12
3 4
4 5
8 1
9 2
10 1
12 1
13 2
16 1
18 1
23 1
26 1
