# Cluster_Size Frequency
1 116
2 20
3 7
4 2
5 1
39 1
8 3
9 1
7 2
12 1
13 1
14 2
15 1
23 1
24 1
30 1
31 1
