# Cluster_Size Frequency
1 107
2 6
3 4
4 1
5 6
6 1
11 1
14 1
