# Cluster_Size Frequency
1 178
2 33
3 7
4 5
5 5
39 1
8 1
9 1
7 1
13 1
14 1
393 1
24 1
