# Cluster_Size Frequency
1 184
258 1
3 9
4 3
5 3
6 2
7 2
8 1
9 2
10 1
11 2
2 17
20 1
