# Cluster_Size Frequency
1 155
2 13
3 12
4 6
6 2
7 2
8 3
9 1
10 4
332 1
12 1
15 1
16 1
