# Cluster_Size Frequency
1 178
2 18
3 10
4 7
5 2
7 2
9 1
10 2
11 2
12 1
22 1
297 1
