# Cluster_Size Frequency
16 1
1 172
2 30
3 12
324 1
5 6
6 3
7 1
9 2
13 1
4 3
