# Cluster_Size Frequency
16 1
8 3
2 21
3 11
4 7
5 4
6 1
7 1
264 1
9 3
1 183
