# Cluster_Size Frequency
1 156
2 21
3 9
4 2
37 1
6 2
8 2
9 1
10 1
12 1
14 1
40 1
19 1
265 1
5 6
