# Cluster_Size Frequency
16 1
1 21
2 4
3 1
4 1
398 1
