# Cluster_Size Frequency
369 1
2 5
3 2
5 1
1 18
