# Cluster_Size Frequency
1 149
2 13
3 12
4 3
6 2
7 1
8 3
9 1
10 4
12 1
15 1
16 1
