# Cluster_Size Frequency
16 2
1 141
18 2
3 4
4 4
5 3
6 2
8 3
10 2
11 1
2 28
