# Cluster_Size Frequency
32 1
1 170
2 22
3 9
4 5
5 3
6 2
7 3
10 1
11 1
12 1
22 1
