# Cluster_Size Frequency
1 141
2 26
3 10
4 9
5 8
6 3
295 1
8 1
9 1
10 1
7 1
12 2
13 1
19 1
22 1
41 1
