# Cluster_Size Frequency
608 1
1 120
2 19
3 14
4 4
37 1
6 5
7 3
8 2
10 1
11 1
13 2
14 2
15 3
18 1
57 1
5 5
