# Cluster_Size Frequency
32 1
1 169
642 1
3 13
4 3
5 3
6 4
7 1
8 2
9 4
2 32
12 1
13 1
14 2
17 1
20 1
27 1
28 1
