# Cluster_Size Frequency
1 149
2 26
3 10
324 1
5 5
6 3
7 2
8 1
9 1
11 1
12 2
16 4
17 1
18 1
21 1
4 9
