# Cluster_Size Frequency
1 133
2 31
3 8
4 6
326 1
6 2
7 1
8 2
9 1
15 3
50 1
24 1
25 1
5 1
