# Cluster_Size Frequency
1 156
2 28
3 14
4 8
70 1
6 3
7 1
9 2
42 1
11 1
15 1
17 3
470 1
23 1
5 4
