# Cluster_Size Frequency
1 135
2 16
3 8
4 2
5 2
6 3
7 2
8 3
10 2
11 3
46 1
15 1
22 1
88 1
