# Cluster_Size Frequency
1 180
33 1
2 22
3 12
4 3
5 3
6 2
263 1
10 1
7 1
12 1
19 1
21 1
