# Cluster_Size Frequency
1 158
2 22
3 11
4 6
6 2
7 1
8 1
9 1
17 1
21 1
265 1
26 1
29 1
31 1
