# Cluster_Size Frequency
16 1
401 1
2 16
3 7
4 2
5 2
6 2
1 46
9 1
13 1
15 2
