# Cluster_Size Frequency
1 34
2 8
3 4
4 1
22 1
6 1
11 1
86 1
46 1
5 1
