# Cluster_Size Frequency
1 26
2 8
3 5
4 4
5 1
6 1
7 3
9 1
11 1
14 1
19 1
24 1
27 1
