# Cluster_Size Frequency
1 29
2 16
3 2
4 1
6 1
9 2
11 1
62 1
63 1
