# Cluster_Size Frequency
3 5
1 35
2 9
227 1
4 1
5 2
6 2
8 1
