# Cluster_Size Frequency
1 190
2 34
3 17
4 2
5 4
6 3
7 3
8 2
9 4
10 2
12 1
14 2
26 2
63 1
