# Cluster_Size Frequency
1 124
2 22
3 5
4 5
5 1
6 1
7 1
8 1
9 1
15 3
49 1
24 1
25 1
