# Cluster_Size Frequency
1 160
2 12
3 7
4 5
5 5
7 1
10 2
12 1
13 1
15 1
20 1
27 1
