# Cluster_Size Frequency
1 94
2 14
3 6
4 3
5 2
6 2
7 3
10 1
12 1
13 1
