# Cluster_Size Frequency
1 121
2 15
3 3
4 6
5 2
6 3
7 2
8 1
9 1
11 1
12 1
19 1
21 1
28 1
29 1
