# Cluster_Size Frequency
3 5
1 92
2 14
19 1
20 1
6 2
7 1
9 1
11 1
13 1
4 3
