# Cluster_Size Frequency
1 126
2 20
3 7
4 4
5 3
6 1
8 1
11 1
12 1
15 1
16 1
40 1
18 1
23 1
