# Cluster_Size Frequency
1 138
2 15
3 6
4 2
6 2
8 1
9 1
16 1
21 1
24 1
28 1
30 1
