# Cluster_Size Frequency
1 18
2 5
3 1
21 1
6 3
329 1
