# Cluster_Size Frequency
1 28
2 8
3 1
300 1
