# Cluster_Size Frequency
472 1
1 12
138 1
2 5
