# Cluster_Size Frequency
1 33
18 1
3 2
4 2
6 1
388 1
2 3
