# Cluster_Size Frequency
665 1
2 2
3 1
4 2
1 17
