# Cluster_Size Frequency
1 23
2 2
3 1
4 2
292 1
11 1
