# Cluster_Size Frequency
1 79
2 17
3 11
4 6
166 1
6 2
7 1
8 1
9 1
12 2
13 2
14 1
49 1
108 1
5 1
