# Cluster_Size Frequency
1 34
18 1
3 2
4 2
6 1
387 1
2 3
