# Cluster_Size Frequency
8 2
2 7
4 2
1 29
71 1
136 1
7 1
10 1
11 1
