# Cluster_Size Frequency
1 21
2 1
3 1
4 2
663 1
