# Cluster_Size Frequency
1 20
2 5
3 4
21 1
6 4
9 1
303 1
