# Cluster_Size Frequency
289 1
2 1
3 1
4 2
1 28
11 1
