# Cluster_Size Frequency
320 1
32 1
2 24
3 13
4 4
5 3
6 1
7 3
9 1
1 152
12 3
13 2
16 1
19 3
21 1
23 1
