# Cluster_Size Frequency
1 170
2 18
3 18
4 5
37 1
6 1
7 2
11 2
12 1
14 2
15 1
17 1
23 1
216 1
5 5
