# Cluster_Size Frequency
1 148
2 42
227 1
4 10
38 1
6 4
7 3
8 2
9 1
10 1
12 1
13 1
3 11
25 1
28 1
5 4
