# Cluster_Size Frequency
1 130
2 33
3 10
4 4
5 5
6 4
8 2
9 1
10 1
12 1
15 1
17 1
243 1
22 1
24 1
31 1
