# Cluster_Size Frequency
1 140
2 26
3 6
4 4
5 2
6 2
7 2
8 2
9 1
14 1
15 4
16 1
18 1
20 1
21 1
22 1
190 1
