# Cluster_Size Frequency
1 35
2 7
3 7
4 2
5 2
7 2
9 1
229 1
