# Cluster_Size Frequency
1 115
2 24
3 5
4 3
5 2
6 2
39 1
24 1
43 1
12 1
14 2
