# Cluster_Size Frequency
1 114
2 11
3 6
4 4
5 2
6 2
7 2
8 1
9 1
12 3
16 2
17 1
23 1
