# Cluster_Size Frequency
32 1
1 112
2 17
3 4
4 1
5 3
6 3
7 3
10 1
11 3
13 1
15 1
16 1
17 2
