# Cluster_Size Frequency
1 121
2 15
3 8
4 4
5 2
6 1
9 2
10 1
12 2
