# Cluster_Size Frequency
32 1
1 112
2 19
3 6
4 5
5 3
6 3
7 2
8 1
9 1
10 1
11 1
12 2
13 1
14 1
19 1
