# Cluster_Size Frequency
1 138
2 17
3 19
4 6
5 3
6 1
7 2
8 2
41 1
42 1
17 1
20 1
22 1
24 1
10 1
