# Cluster_Size Frequency
1 139
2 24
99 1
4 10
6 3
7 3
8 1
10 2
11 1
14 1
3 7
20 1
149 1
23 1
250 1
