# Cluster_Size Frequency
33 1
2 25
35 1
4 6
5 6
6 2
7 1
8 1
41 1
1 114
14 1
17 1
3 4
53 1
93 1
