# Cluster_Size Frequency
1 135
34 1
3 5
4 7
37 1
6 2
7 2
40 1
10 1
11 2
12 2
13 1
14 1
8 2
244 1
21 1
2 27
94 1
5 2
