# Cluster_Size Frequency
1 124
2 22
3 8
4 7
5 5
6 3
7 5
8 1
9 1
10 1
12 1
14 1
15 1
72 1
21 1
137 1
24 1
