# Cluster_Size Frequency
1 128
2 26
3 8
4 8
5 3
6 2
7 2
8 2
9 2
13 1
14 1
17 1
19 1
24 2
29 1
