# Cluster_Size Frequency
16 1
1 39
2 9
3 2
4 2
5 1
6 1
73 1
90 1
61 1
