# Cluster_Size Frequency
1 26
2 8
4 2
71 1
8 2
137 1
10 1
11 1
7 1
