# Cluster_Size Frequency
1 28
146 1
3 6
20 1
5 1
6 1
4 2
10 1
139 1
2 5
