# Cluster_Size Frequency
1 74
2 7
3 4
4 3
5 5
6 1
7 1
9 1
