# Cluster_Size Frequency
1 89
2 12
3 6
4 3
5 3
6 1
7 1
8 1
9 2
11 2
12 1
15 1
16 2
17 1
19 1
