# Cluster_Size Frequency
1 121
2 16
3 9
4 7
6 1
7 2
9 1
45 1
14 1
13 1
17 1
18 1
41 1
25 1
