# Cluster_Size Frequency
3 5
1 146
2 28
35 1
196 1
5 2
7 2
9 1
12 1
4 9
