# Cluster_Size Frequency
1 146
2 20
3 8
4 7
5 1
7 4
8 1
9 2
12 1
141 1
14 2
16 1
