# Cluster_Size Frequency
1 157
2 15
3 5
4 4
5 4
6 1
8 3
10 2
11 3
18 1
13 2
210 1
