# Cluster_Size Frequency
3 2
1 22
2 6
99 1
4 2
5 2
6 2
108 1
12 1
