# Cluster_Size Frequency
1 25
2 5
3 2
116 1
5 2
9 1
138 1
4 1
