# Cluster_Size Frequency
19 1
1 16
114 1
3 6
4 2
100 1
2 7
