# Cluster_Size Frequency
1 21
2 7
3 1
356 1
5 5
9 1
