# Cluster_Size Frequency
1 22
2 10
3 1
4 1
5 1
267 1
