# Cluster_Size Frequency
1 15
2 4
3 1
4 2
5 1
7 1
371 1
