# Cluster_Size Frequency
4 4
2 7
3 1
196 1
1 23
