# Cluster_Size Frequency
1 26
2 5
3 2
4 1
247 1
