# Cluster_Size Frequency
1 118
2 12
3 4
4 3
7 3
8 1
9 2
12 1
14 2
