# Cluster_Size Frequency
1 135
2 12
3 4
4 4
5 4
7 2
8 1
25 1
15 1
