# Cluster_Size Frequency
1 133
2 12
3 7
4 2
5 2
7 1
8 1
9 1
10 1
11 1
14 2
18 1
21 1
