# Cluster_Size Frequency
1 141
2 21
3 2
4 3
5 3
6 3
7 2
8 1
9 1
15 1
18 1
20 1
21 1
