# Cluster_Size Frequency
1 137
2 10
3 13
4 3
5 1
6 1
7 2
9 1
10 2
11 1
15 1
19 1
24 1
28 1
31 1
