# Cluster_Size Frequency
1 150
2 22
3 7
4 4
5 3
6 1
7 1
8 4
9 1
11 1
44 1
13 1
12 1
15 1
14 2
