# Cluster_Size Frequency
1 119
2 26
3 6
4 2
30 1
6 2
7 4
12 1
14 1
5 4
