# Cluster_Size Frequency
1 153
2 20
3 8
4 6
5 6
6 1
7 2
8 1
10 1
11 1
12 1
13 1
17 1
25 1
63 1
