# Cluster_Size Frequency
1 118
2 19
3 5
4 1
6 4
8 1
9 2
12 1
13 1
16 1
20 1
24 1
