# Cluster_Size Frequency
1 220
33 1
2 32
3 8
4 8
5 7
6 4
7 1
8 1
9 2
10 1
13 1
78 1
15 1
18 1
19 1
14 1
663 1
29 1
30 1
