# Cluster_Size Frequency
544 1
1 232
2 22
35 1
4 5
5 10
6 2
7 2
8 2
9 2
10 1
13 1
15 1
16 1
3 11
22 1
31 2
