# Cluster_Size Frequency
1 10
210 1
3 1
5 1
6 1
2 2
95 1
