# Cluster_Size Frequency
1 12
2 2
3 1
4 3
10 1
845 1
