# Cluster_Size Frequency
1 210
2 23
3 13
4 6
22 2
6 1
8 1
11 2
12 2
13 1
18 1
54 1
28 1
5 10
