# Cluster_Size Frequency
1 269
34 1
3 14
4 5
37 1
6 5
7 2
8 1
10 1
11 2
13 1
16 1
17 1
2 33
24 2
25 2
26 1
27 1
30 1
5 7
