# Cluster_Size Frequency
1 242
2 32
3 15
4 9
5 6
6 3
7 1
12 1
16 1
17 1
25 3
27 1
28 1
