# Cluster_Size Frequency
1 180
2 23
3 11
4 6
5 5
7 1
8 3
9 1
10 2
11 1
12 1
13 1
15 1
17 1
