# Cluster_Size Frequency
1 237
2 23
3 14
4 7
6 1
294 1
7 1
40 1
9 1
10 1
11 1
237 1
16 1
17 1
8 2
27 1
60 1
5 5
