# Cluster_Size Frequency
1 187
2 26
3 9
4 5
229 1
7 1
8 4
10 4
11 1
12 1
13 1
14 1
249 1
56 1
25 1
5 6
31 1
