# Cluster_Size Frequency
1 225
2 37
3 10
5 5
6 5
7 3
8 2
10 1
12 2
13 1
368 1
17 1
18 1
20 2
278 1
24 1
57 1
93 1
