# Cluster_Size Frequency
1 241
2 30
3 11
4 3
6 1
146 1
7 4
9 3
11 1
18 1
13 1
16 1
434 1
73 1
25 1
57 1
15 1
5 5
