# Cluster_Size Frequency
1 236
2 27
3 13
4 7
5 6
6 6
7 1
8 2
9 4
10 1
11 1
13 1
14 1
18 1
19 1
20 1
21 1
471 1
153 1
31 1
42 1
50 1
