# Cluster_Size Frequency
1 231
2 35
35 1
4 6
5 4
6 1
7 1
8 3
252 1
10 3
11 1
12 1
13 2
14 1
47 1
3 7
20 1
9 3
344 1
28 1
30 1
