# Cluster_Size Frequency
33 1
2 36
259 1
4 2
6 2
16 1
7 2
8 3
9 1
11 1
13 1
15 3
48 1
18 1
3 12
1 222
24 1
283 1
5 3
