# Cluster_Size Frequency
1 10
394 1
3 2
167 1
