# Cluster_Size Frequency
65 1
2 3
3 3
4 1
37 1
7 1
10 1
11 1
12 1
19 1
1 14
22 1
5 1
