# Cluster_Size Frequency
1 15
2 2
3 1
278 1
359 1
