# Cluster_Size Frequency
1 10
338 1
2 2
14 1
246 1
