# Cluster_Size Frequency
32 1
1 196
2 19
3 15
36 1
5 4
6 1
7 3
8 4
11 2
12 1
15 1
17 1
19 1
4 5
29 1
