# Cluster_Size Frequency
1 183
2 22
3 8
4 5
5 7
7 1
8 4
10 3
11 1
12 1
13 1
14 1
53 1
25 1
31 1
